param set_len = 18;
param target_sum = 6955456698;
param values := [1] 713367792 [2] 179929773 [3] 793983244 [4] 130869662 [5] 941890106 [6] 557160563 [7] 618110735 [8] 993105179 [9] 611468782 [10] 858246447 [11] 584488751 [12] 1034534017 [13] 321022065 [14] 370423916 [15] 806429355 [16] 759989165 [17] 409199137 [18] 893106847 ;
